227
298
357
572
205
235
290
495
239
447
415
260
225
404
478
247
353
430
238
376
382
290
221
207
237
362
312
270
315
296
290
232
327
425
496
284
397
307
344
298
246
249
343
384
337
280
343
406
429
368
279
236
410
317
471
430
547
389
466
402
265
385
376
337
356
287
278
501
412
272
235
214
300
371
310
300
252
197
311
295
382
395
300
256
406
589
271
222
265
273
199
511
377
343
283
263
283
440
394
361
